9
0 15 4 18 35 1 24 24 0
15 0 29 12 31 31 29 25 8
4 29 0 35 10 8 4 21 2
18 12 35 0 58 8 8 52 23
35 31 10 58 0 11 12 0 65
1 31 8 8 11 0 22 9 21
24 29 4 8 12 22 0 71 2
24 25 21 52 0 9 71 0 29
0 8 2 23 65 21 2 29 0